%mem=8GB
%CHK=water.chk
#n B3LYP/aug-cc-pVTZ SP

 gauusian_1

0 1
O          0.33148       -0.34909        0.00000
H          1.30148       -0.34909        0.00000
H          0.00815        0.12874        0.77977
O          6.40405        0.08270        0.38988
H          7.37405        0.08270        0.38988
H          6.08072        0.73516        1.03071
