%NProcShared=4
%mem=8GB
%CHK=water.chk
#n B3LYP/aug-cc-pVTZ SP

 water_2

0 1
O          0.00000        0.00000        0.00000
H          0.95783        0.00000        0.00000
H         -0.23982        0.92733        0.00000
O          0.42879        1.76458       -1.86959
H          0.43189        1.73756       -0.91214
H         -0.46104        1.50773       -2.11388
